c SSAT file for PBN EPFL/random_control/dec_distill_EPFL/random_control/dec_miter written by probABC
p cnf 24 24
e 1 0
e 2 0
e 3 0
e 4 0
e 5 0
e 6 0
e 7 0
e 8 0
r 0.125000 9 0
r 0.125000 10 0
r 0.125000 11 0
r 0.125000 12 0
r 0.125000 13 0
r 0.125000 14 0
r 0.125000 15 0
r 0.125000 16 0
e 18 0
e 19 0
e 20 0
e 21 0
e 22 0
e 23 0
e 24 0
e 17 0
18 9 10 0
-18 -9 0
-18 -10 0
19 11 12 0
-19 -11 0
-19 -12 0
20 13 14 0
-20 -13 0
-20 -14 0
21 15 16 0
-21 -15 0
-21 -16 0
22 -20 -21 0
-22 20 0
-22 21 0
23 -18 -19 0
-23 18 0
-23 19 0
24 -22 -23 0
-24 22 0
-24 23 0
17 24 0
-17 -24 0
17 0
